
===== New CPLEX run =====
Instance: /home/yorig/tuner/mpils-tests/instances/miplib/easy/lotsize.mps
Config: /scratch/yorig/mpils-results-grid-seconds-5-no-mip-start/easy/16proc/seed-3/4_lotsize_seed-3_20260502_223218/expansion/config_param_CPXPARAM_Preprocessing_Reduce_2_iter_4.prm
========================

Selected objective sense:  MINIMIZE
Selected objective  name:  R1921
Selected RHS        name:  B
Selected bound      name:  BOUND
Version identifier: 22.1.2.0 | 2024-11-26 | 0edbb82fd
CPXPARAM_Simplex_DGradient                       4
CPXPARAM_Preprocessing_Reduce                    2
CPXPARAM_Threads                                 8
CPXPARAM_Parallel                                1
CPXPARAM_MIP_Cuts_Cliques                        2
CPXPARAM_Preprocessing_CoeffReduce               0
CPXPARAM_MIP_Strategy_SubAlgorithm               2
CPXPARAM_MIP_Strategy_VariableSelect             4
CPXPARAM_MIP_Cuts_FlowCovers                     -1
CPXPARAM_MIP_Cuts_Implied                        2
CPXPARAM_MIP_Limits_GomoryCand                   800
CPXPARAM_MIP_Cuts_Gomory                         2
CPXPARAM_MIP_Cuts_MIRCut                         1
CPXPARAM_MIP_Limits_AggForCut                    10
CPXPARAM_Emphasis_MIP                            5
CPXPARAM_MIP_Strategy_BBInterval                 5
CPXPARAM_TimeLimit                               5
CPXPARAM_MIP_Limits_CutsFactor                   4
Tried aggregator 0 times.
Reduced MIP has 1920 rows, 2985 columns, and 6565 nonzeros.
Reduced MIP has 1195 binaries, 0 generals, 0 SOSs, and 0 indicators.
Presolve time = 0.00 sec. (0.94 ticks)
Probing time = 0.00 sec. (1.73 ticks)
Clique table members: 155.
MIP emphasis: heuristic.
MIP search method: dynamic search.
Parallel mode: deterministic, using up to 8 threads.
Root relaxation solution time = 0.01 sec. (9.82 ticks)

        Nodes                                         Cuts/
   Node  Left     Objective  IInf  Best Integer    Best Bound    ItCnt     Gap

      0     0   348385.3466   471                 348385.3466     1479         
*     0+    0                       1.14909e+07   348385.3466            96.97%
      0     0   348385.3466   672   1.14909e+07     Cuts: 580     1762   96.97%
      0     0   493434.0436   591   1.14909e+07     Cuts: 580     2595   95.69%
      0     0   634101.0421   591   1.14909e+07     Cuts: 580     3220   94.46%
      0     0   739194.1947   580   1.14909e+07     Cuts: 580     3694   93.57%
*     0+    0                      1943512.0000   739194.1947            61.97%
      0     0   829558.5503   566  1943512.0000     Cuts: 580     4200   54.08%
      0     0   939569.0353   549  1943512.0000     Cuts: 580     4763   51.06%
      0     0  1000428.8511   570  1943512.0000     Cuts: 580     5213   48.52%
      0     0  1071725.9412   567  1943512.0000     Cuts: 580     5679   43.01%
      0     0  1119131.2626   586  1943512.0000     Cuts: 580     6114   39.17%
      0     0  1175161.0765   567  1943512.0000     Cuts: 580     6591   36.40%
      0     0  1235479.1630   570  1943512.0000     Cuts: 580     7170   34.08%
*     0+    0                      1661865.0000  1281179.0839            22.91%
      0     0  1272399.7235   556  1661865.0000     Cuts: 580     7818   21.17%
      0     0  1297491.1055   557  1661865.0000     Cuts: 580     8325   20.61%
      0     0  1315157.8216   565  1661865.0000     Cuts: 580     8944   20.01%
      0     0  1325888.8739   586  1661865.0000     Cuts: 580     9454   19.53%

Clique cuts applied:  0
Cover cuts applied:  6
Implied bound cuts applied:  1
Mixed integer rounding cuts applied:  1634
Flow path cuts applied:  84
Multi commodity flow cuts applied:  7
Gomory fractional cuts applied:  93

Root node processing (before b&c):
  Real time             =    5.01 sec. (7758.67 ticks)
Parallel b&c, 8 threads:
  Real time             =    0.00 sec. (0.00 ticks)
  Sync time (average)   =    0.00 sec.
  Wait time (average)   =    0.00 sec.
                          ------------
Total (root+branch&cut) =    5.01 sec. (7758.67 ticks)
Gap: 19.17%
Upper bound: 1.66186e+06
Lower bound: 1.34323e+06
End of CPLEX run. Time: 5.01438 seconds
